src/RACER/swarm_exploration/utils/lkh_mtsp_solver/resource/amtsp_4.atsp
NAME : amtsp
TYPE : ATSP
DIMENSION : 5
EDGE_WEIGHT_TYPE : EXPLICIT
EDGE_WEIGHT_FORMAT : FULL_MATRIX
EDGE_WEIGHT_SECTION
100000 -100000 100000 100000 100000 
100000 100000 625 189 404 
0 0 100000 388 174 
0 0 388 100000 241 
0 0 174 241 100000 
