src/RACER/swarm_exploration/utils/lkh_mtsp_solver/resource/amtsp_4.tour
NAME : amtsp.-99713.tour
COMMENT : Length = -99713
COMMENT : Found by LKH [Keld Helsgaun] Wed Mar 22 22:46:35 2023
TYPE : TOUR
DIMENSION : 3
TOUR_SECTION
1
2
3
-1
EOF
